NAME : brazil58.26538.tour
COMMENT : Cost = 0_26538
COMMENT : Found by LKH [Keld Helsgaun] Thu Nov 16 16:23:47 2017
TYPE : TOUR
DIMENSION : 60
TOUR_SECTION
1
18
59
13
40
25
9
32
20
53
50
4
8
22
16
42
38
7
31
11
39
21
36
17
26
19
6
28
14
37
15
34
46
56
45
33
29
3
48
55
54
2
41
35
10
52
51
47
49
43
27
5
23
12
57
24
58
44
60
30
-1
EOF
